peakDumbCharging = 18500; 
Machine = anon_enum(16); 
machineSpeed = [3700,3700,3700,3700,3700,3700,3700,3700,3700,3700,3700,3700,3700,3700,3700,3700]; 
machineLoad = [3700,3700,3700,3700,3700,3700,3700,3700,3700,3700,3700,3700,3700,3700,3700,3700]; 
Car = anon_enum(17); 
demandCar = [5960,31760,5480,1600,10560,12160,29080,27040,13240,13800,4400,1400,28160,17680,7440,30880,36560]; 
arrivalCar = [78,76,70,67,67,65,65,63,50,45,43,40,40,39,35,34,33]; 
departureCar = [81,87,73,69,74,70,75,77,55,50,47,42,50,50,42,63,55]; 
